pixelwidth = 744 ;
maxconfig = 5 ;
rows = 116 ;
cols = 4 ;
width = array3d(ROWS,COLS,CONFIGS, [
  85,-1,-1,-1,-1,
  133,-1,-1,-1,-1,
  142,-1,-1,-1,-1,
  110,-1,-1,-1,-1,
  85,-1,-1,-1,-1,
  133,-1,-1,-1,-1,
  142,-1,-1,-1,-1,
  206,130,110,-1,-1,
  85,-1,-1,-1,-1,
  133,-1,-1,-1,-1,
  154,142,-1,-1,-1,
  234,138,110,-1,-1,
  85,-1,-1,-1,-1,
  133,-1,-1,-1,-1,
  142,-1,-1,-1,-1,
  206,130,110,-1,-1,
  85,-1,-1,-1,-1,
  133,-1,-1,-1,-1,
  142,-1,-1,-1,-1,
  224,138,110,-1,-1,
  85,-1,-1,-1,-1,
  133,-1,-1,-1,-1,
  142,-1,-1,-1,-1,
  206,130,110,-1,-1,
  85,-1,-1,-1,-1,
  133,-1,-1,-1,-1,
  142,-1,-1,-1,-1,
  224,138,110,-1,-1,
  85,-1,-1,-1,-1,
  133,-1,-1,-1,-1,
  142,-1,-1,-1,-1,
  224,138,110,-1,-1,
  85,-1,-1,-1,-1,
  133,-1,-1,-1,-1,
  142,-1,-1,-1,-1,
  110,-1,-1,-1,-1,
  85,-1,-1,-1,-1,
  133,-1,-1,-1,-1,
  142,-1,-1,-1,-1,
  110,-1,-1,-1,-1,
  85,-1,-1,-1,-1,
  133,-1,-1,-1,-1,
  142,-1,-1,-1,-1,
  224,138,110,-1,-1,
  85,-1,-1,-1,-1,
  133,-1,-1,-1,-1,
  142,-1,-1,-1,-1,
  206,130,110,-1,-1,
  85,-1,-1,-1,-1,
  153,133,-1,-1,-1,
  142,-1,-1,-1,-1,
  206,130,110,-1,-1,
  85,-1,-1,-1,-1,
  133,-1,-1,-1,-1,
  142,-1,-1,-1,-1,
  110,-1,-1,-1,-1,
  85,-1,-1,-1,-1,
  133,-1,-1,-1,-1,
  142,-1,-1,-1,-1,
  110,-1,-1,-1,-1,
  85,-1,-1,-1,-1,
  133,-1,-1,-1,-1,
  142,-1,-1,-1,-1,
  224,138,110,-1,-1,
  85,-1,-1,-1,-1,
  163,133,-1,-1,-1,
  142,-1,-1,-1,-1,
  110,-1,-1,-1,-1,
  85,-1,-1,-1,-1,
  133,-1,-1,-1,-1,
  142,-1,-1,-1,-1,
  110,-1,-1,-1,-1,
  85,-1,-1,-1,-1,
  133,-1,-1,-1,-1,
  143,142,-1,-1,-1,
  224,138,110,-1,-1,
  85,-1,-1,-1,-1,
  133,-1,-1,-1,-1,
  142,-1,-1,-1,-1,
  235,128,110,-1,-1,
  85,-1,-1,-1,-1,
  133,-1,-1,-1,-1,
  142,-1,-1,-1,-1,
  234,138,110,-1,-1,
  85,-1,-1,-1,-1,
  133,-1,-1,-1,-1,
  142,-1,-1,-1,-1,
  110,-1,-1,-1,-1,
  85,-1,-1,-1,-1,
  133,-1,-1,-1,-1,
  142,-1,-1,-1,-1,
  224,138,110,-1,-1,
  85,-1,-1,-1,-1,
  133,-1,-1,-1,-1,
  142,-1,-1,-1,-1,
  206,130,110,-1,-1,
  85,-1,-1,-1,-1,
  133,-1,-1,-1,-1,
  154,142,-1,-1,-1,
  224,138,110,-1,-1,
  85,-1,-1,-1,-1,
  164,133,-1,-1,-1,
  142,-1,-1,-1,-1,
  110,-1,-1,-1,-1,
  85,-1,-1,-1,-1,
  133,-1,-1,-1,-1,
  142,-1,-1,-1,-1,
  110,-1,-1,-1,-1,
  85,-1,-1,-1,-1,
  133,-1,-1,-1,-1,
  142,-1,-1,-1,-1,
  224,138,110,-1,-1,
  85,-1,-1,-1,-1,
  147,133,-1,-1,-1,
  142,-1,-1,-1,-1,
  224,138,110,-1,-1,
  85,-1,-1,-1,-1,
  133,-1,-1,-1,-1,
  142,-1,-1,-1,-1,
  110,-1,-1,-1,-1,
  85,-1,-1,-1,-1,
  133,-1,-1,-1,-1,
  142,-1,-1,-1,-1,
  110,-1,-1,-1,-1,
  85,-1,-1,-1,-1,
  133,-1,-1,-1,-1,
  199,142,-1,-1,-1,
  206,130,110,-1,-1,
  85,-1,-1,-1,-1,
  133,-1,-1,-1,-1,
  142,-1,-1,-1,-1,
  224,138,110,-1,-1,
  85,-1,-1,-1,-1,
  133,-1,-1,-1,-1,
  142,-1,-1,-1,-1,
  110,-1,-1,-1,-1,
  85,-1,-1,-1,-1,
  133,-1,-1,-1,-1,
  142,-1,-1,-1,-1,
  206,130,110,-1,-1,
  85,-1,-1,-1,-1,
  133,-1,-1,-1,-1,
  142,-1,-1,-1,-1,
  110,-1,-1,-1,-1,
  85,-1,-1,-1,-1,
  143,133,-1,-1,-1,
  142,-1,-1,-1,-1,
  224,138,110,-1,-1,
  85,-1,-1,-1,-1,
  133,-1,-1,-1,-1,
  142,-1,-1,-1,-1,
  110,-1,-1,-1,-1,
  85,-1,-1,-1,-1,
  133,-1,-1,-1,-1,
  142,-1,-1,-1,-1,
  206,130,110,-1,-1,
  85,-1,-1,-1,-1,
  133,-1,-1,-1,-1,
  142,-1,-1,-1,-1,
  206,130,110,-1,-1,
  85,-1,-1,-1,-1,
  133,-1,-1,-1,-1,
  142,-1,-1,-1,-1,
  140,110,-1,-1,-1,
  85,-1,-1,-1,-1,
  205,137,133,-1,-1,
  142,-1,-1,-1,-1,
  224,138,110,-1,-1,
  85,-1,-1,-1,-1,
  133,-1,-1,-1,-1,
  142,-1,-1,-1,-1,
  173,110,-1,-1,-1,
  85,-1,-1,-1,-1,
  133,-1,-1,-1,-1,
  142,-1,-1,-1,-1,
  224,138,110,-1,-1,
  85,-1,-1,-1,-1,
  137,133,-1,-1,-1,
  142,-1,-1,-1,-1,
  145,110,-1,-1,-1,
  85,-1,-1,-1,-1,
  133,-1,-1,-1,-1,
  142,-1,-1,-1,-1,
  110,-1,-1,-1,-1,
  85,-1,-1,-1,-1,
  133,-1,-1,-1,-1,
  142,-1,-1,-1,-1,
  110,-1,-1,-1,-1,
  85,-1,-1,-1,-1,
  133,-1,-1,-1,-1,
  142,-1,-1,-1,-1,
  224,138,110,-1,-1,
  85,-1,-1,-1,-1,
  165,133,-1,-1,-1,
  219,142,-1,-1,-1,
  110,-1,-1,-1,-1,
  85,-1,-1,-1,-1,
  133,-1,-1,-1,-1,
  142,-1,-1,-1,-1,
  224,138,110,-1,-1,
  85,-1,-1,-1,-1,
  133,-1,-1,-1,-1,
  142,-1,-1,-1,-1,
  110,-1,-1,-1,-1,
  85,-1,-1,-1,-1,
  133,-1,-1,-1,-1,
  142,-1,-1,-1,-1,
  145,110,-1,-1,-1,
  85,-1,-1,-1,-1,
  133,-1,-1,-1,-1,
  142,-1,-1,-1,-1,
  110,-1,-1,-1,-1,
  85,-1,-1,-1,-1,
  133,-1,-1,-1,-1,
  142,-1,-1,-1,-1,
  110,-1,-1,-1,-1,
  85,-1,-1,-1,-1,
  133,-1,-1,-1,-1,
  142,-1,-1,-1,-1,
  110,-1,-1,-1,-1,
  85,-1,-1,-1,-1,
  133,-1,-1,-1,-1,
  142,-1,-1,-1,-1,
  224,138,110,-1,-1,
  85,-1,-1,-1,-1,
  133,-1,-1,-1,-1,
  142,-1,-1,-1,-1,
  224,138,110,-1,-1,
  85,-1,-1,-1,-1,
  133,-1,-1,-1,-1,
  142,-1,-1,-1,-1,
  110,-1,-1,-1,-1,
  85,-1,-1,-1,-1,
  145,133,-1,-1,-1,
  142,-1,-1,-1,-1,
  206,130,110,-1,-1,
  85,-1,-1,-1,-1,
  133,-1,-1,-1,-1,
  320,171,142,-1,-1,
  206,130,110,-1,-1,
  85,-1,-1,-1,-1,
  133,-1,-1,-1,-1,
  142,-1,-1,-1,-1,
  110,-1,-1,-1,-1,
  85,-1,-1,-1,-1,
  157,133,-1,-1,-1,
  142,-1,-1,-1,-1,
  239,138,110,-1,-1,
  85,-1,-1,-1,-1,
  133,-1,-1,-1,-1,
  279,149,142,-1,-1,
  252,138,120,110,-1,
  85,-1,-1,-1,-1,
  133,-1,-1,-1,-1,
  142,-1,-1,-1,-1,
  110,-1,-1,-1,-1,
  85,-1,-1,-1,-1,
  133,-1,-1,-1,-1,
  142,-1,-1,-1,-1,
  110,-1,-1,-1,-1,
  85,-1,-1,-1,-1,
  133,-1,-1,-1,-1,
  142,-1,-1,-1,-1,
  110,-1,-1,-1,-1,
  85,-1,-1,-1,-1,
  133,-1,-1,-1,-1,
  294,155,145,142,-1,
  206,130,110,-1,-1,
  85,-1,-1,-1,-1,
  133,-1,-1,-1,-1,
  143,142,-1,-1,-1,
  110,-1,-1,-1,-1,
  85,-1,-1,-1,-1,
  133,-1,-1,-1,-1,
  294,155,145,142,-1,
  206,130,110,-1,-1,
  85,-1,-1,-1,-1,
  133,-1,-1,-1,-1,
  334,185,142,-1,-1,
  206,130,110,-1,-1,
  85,-1,-1,-1,-1,
  133,-1,-1,-1,-1,
  558,314,213,182,142,
  224,138,110,-1,-1,
  85,-1,-1,-1,-1,
  133,-1,-1,-1,-1,
  142,-1,-1,-1,-1,
  110,-1,-1,-1,-1,
  85,-1,-1,-1,-1,
  133,-1,-1,-1,-1,
  142,-1,-1,-1,-1,
  110,-1,-1,-1,-1,
  85,-1,-1,-1,-1,
  133,-1,-1,-1,-1,
  263,153,142,-1,-1,
  206,130,110,-1,-1,
  85,-1,-1,-1,-1,
  133,-1,-1,-1,-1,
  142,-1,-1,-1,-1,
  110,-1,-1,-1,-1,
  85,-1,-1,-1,-1,
  133,-1,-1,-1,-1,
  142,-1,-1,-1,-1,
  206,130,110,-1,-1,
  85,-1,-1,-1,-1,
  133,-1,-1,-1,-1,
  142,-1,-1,-1,-1,
  224,138,110,-1,-1,
  85,-1,-1,-1,-1,
  133,-1,-1,-1,-1,
  199,142,-1,-1,-1,
  110,-1,-1,-1,-1,
  85,-1,-1,-1,-1,
  133,-1,-1,-1,-1,
  154,142,-1,-1,-1,
  224,138,110,-1,-1,
  85,-1,-1,-1,-1,
  133,-1,-1,-1,-1,
  142,-1,-1,-1,-1,
  145,110,-1,-1,-1,
  85,-1,-1,-1,-1,
  176,133,-1,-1,-1,
  142,-1,-1,-1,-1,
  145,110,-1,-1,-1,
  85,-1,-1,-1,-1,
  133,-1,-1,-1,-1,
  142,-1,-1,-1,-1,
  110,-1,-1,-1,-1,
  85,-1,-1,-1,-1,
  133,-1,-1,-1,-1,
  176,142,-1,-1,-1,
  110,-1,-1,-1,-1,
  85,-1,-1,-1,-1,
  133,-1,-1,-1,-1,
  142,-1,-1,-1,-1,
  110,-1,-1,-1,-1,
  85,-1,-1,-1,-1,
  170,133,-1,-1,-1,
  142,-1,-1,-1,-1,
  206,130,110,-1,-1,
  85,-1,-1,-1,-1,
  133,-1,-1,-1,-1,
  142,-1,-1,-1,-1,
  110,-1,-1,-1,-1,
  85,-1,-1,-1,-1,
  133,-1,-1,-1,-1,
  142,-1,-1,-1,-1,
  206,130,110,-1,-1,
  85,-1,-1,-1,-1,
  133,-1,-1,-1,-1,
  142,-1,-1,-1,-1,
  110,-1,-1,-1,-1,
  85,-1,-1,-1,-1,
  133,-1,-1,-1,-1,
  177,142,-1,-1,-1,
  145,110,-1,-1,-1,
  85,-1,-1,-1,-1,
  133,-1,-1,-1,-1,
  176,142,-1,-1,-1,
  224,138,110,-1,-1,
  85,-1,-1,-1,-1,
  133,-1,-1,-1,-1,
  142,-1,-1,-1,-1,
  206,130,110,-1,-1,
  85,-1,-1,-1,-1,
  133,-1,-1,-1,-1,
  209,142,-1,-1,-1,
  224,138,110,-1,-1,
  85,-1,-1,-1,-1,
  185,133,-1,-1,-1,
  142,-1,-1,-1,-1,
  224,138,110,-1,-1,
  85,-1,-1,-1,-1,
  133,-1,-1,-1,-1,
  142,-1,-1,-1,-1,
  206,130,110,-1,-1,
  85,-1,-1,-1,-1,
  133,-1,-1,-1,-1,
  228,142,-1,-1,-1,
  224,138,110,-1,-1,
  85,-1,-1,-1,-1,
  133,-1,-1,-1,-1,
  142,-1,-1,-1,-1,
  110,-1,-1,-1,-1,
  85,-1,-1,-1,-1,
  133,-1,-1,-1,-1,
  142,-1,-1,-1,-1,
  110,-1,-1,-1,-1,
  85,-1,-1,-1,-1,
  133,-1,-1,-1,-1,
  142,-1,-1,-1,-1,
  224,138,110,-1,-1,
  85,-1,-1,-1,-1,
  133,-1,-1,-1,-1,
  142,-1,-1,-1,-1,
  206,130,110,-1,-1,
  85,-1,-1,-1,-1,
  133,-1,-1,-1,-1,
  142,-1,-1,-1,-1,
  145,110,-1,-1,-1,
  85,-1,-1,-1,-1,
  133,-1,-1,-1,-1,
  191,142,-1,-1,-1,
  145,110,-1,-1,-1,
  85,-1,-1,-1,-1,
  133,-1,-1,-1,-1,
  142,-1,-1,-1,-1,
  110,-1,-1,-1,-1,
  85,-1,-1,-1,-1,
  133,-1,-1,-1,-1,
  142,-1,-1,-1,-1,
  206,130,110,-1,-1,
  85,-1,-1,-1,-1,
  133,-1,-1,-1,-1,
  142,-1,-1,-1,-1,
  224,138,110,-1,-1,
  85,-1,-1,-1,-1,
  133,-1,-1,-1,-1,
  154,142,-1,-1,-1,
  206,130,110,-1,-1,
  85,-1,-1,-1,-1,
  133,-1,-1,-1,-1,
  142,-1,-1,-1,-1,
  206,130,110,-1,-1,
  85,-1,-1,-1,-1,
  133,-1,-1,-1,-1,
  142,-1,-1,-1,-1,
  234,138,110,-1,-1,
  85,-1,-1,-1,-1,
  133,-1,-1,-1,-1,
  177,142,-1,-1,-1,
  206,130,110,-1,-1,
  85,-1,-1,-1,-1,
  133,-1,-1,-1,-1,
  142,-1,-1,-1,-1,
  110,-1,-1,-1,-1,
  85,-1,-1,-1,-1,
  133,-1,-1,-1,-1,
  321,175,142,-1,-1,
  145,110,-1,-1,-1,
  85,-1,-1,-1,-1,
  270,145,133,-1,-1,
  235,142,-1,-1,-1,
  110,-1,-1,-1,-1,
  85,-1,-1,-1,-1,
  133,-1,-1,-1,-1,
  142,-1,-1,-1,-1,
  206,130,110,-1,-1,
  85,-1,-1,-1,-1,
  133,-1,-1,-1,-1,
  142,-1,-1,-1,-1,
  110,-1,-1,-1,-1,
  85,-1,-1,-1,-1,
  133,-1,-1,-1,-1,
  142,-1,-1,-1,-1,
  224,138,110,-1,-1,
  85,-1,-1,-1,-1,
  201,146,133,-1,-1,
  142,-1,-1,-1,-1,
  110,-1,-1,-1,-1,
  85,-1,-1,-1,-1,
  294,166,133,-1,-1,
  142,-1,-1,-1,-1,
  110,-1,-1,-1,-1 ]);
height = array3d(ROWS,COLS,CONFIGS, [
  36,-1,-1,-1,-1,
  36,-1,-1,-1,-1,
  36,-1,-1,-1,-1,
  36,-1,-1,-1,-1,
  36,-1,-1,-1,-1,
  36,-1,-1,-1,-1,
  36,-1,-1,-1,-1,
  36,61,86,-1,-1,
  36,-1,-1,-1,-1,
  36,-1,-1,-1,-1,
  36,61,-1,-1,-1,
  36,61,86,-1,-1,
  36,-1,-1,-1,-1,
  36,-1,-1,-1,-1,
  36,-1,-1,-1,-1,
  36,61,86,-1,-1,
  36,-1,-1,-1,-1,
  36,-1,-1,-1,-1,
  36,-1,-1,-1,-1,
  36,61,86,-1,-1,
  36,-1,-1,-1,-1,
  36,-1,-1,-1,-1,
  36,-1,-1,-1,-1,
  36,61,86,-1,-1,
  36,-1,-1,-1,-1,
  36,-1,-1,-1,-1,
  36,-1,-1,-1,-1,
  36,61,86,-1,-1,
  36,-1,-1,-1,-1,
  36,-1,-1,-1,-1,
  36,-1,-1,-1,-1,
  36,61,86,-1,-1,
  36,-1,-1,-1,-1,
  36,-1,-1,-1,-1,
  36,-1,-1,-1,-1,
  36,-1,-1,-1,-1,
  36,-1,-1,-1,-1,
  36,-1,-1,-1,-1,
  36,-1,-1,-1,-1,
  36,-1,-1,-1,-1,
  36,-1,-1,-1,-1,
  36,-1,-1,-1,-1,
  36,-1,-1,-1,-1,
  36,61,86,-1,-1,
  36,-1,-1,-1,-1,
  36,-1,-1,-1,-1,
  36,-1,-1,-1,-1,
  36,61,86,-1,-1,
  36,-1,-1,-1,-1,
  36,61,-1,-1,-1,
  36,-1,-1,-1,-1,
  36,61,86,-1,-1,
  36,-1,-1,-1,-1,
  36,-1,-1,-1,-1,
  36,-1,-1,-1,-1,
  36,-1,-1,-1,-1,
  36,-1,-1,-1,-1,
  36,-1,-1,-1,-1,
  36,-1,-1,-1,-1,
  36,-1,-1,-1,-1,
  36,-1,-1,-1,-1,
  36,-1,-1,-1,-1,
  36,-1,-1,-1,-1,
  36,61,86,-1,-1,
  36,-1,-1,-1,-1,
  36,61,-1,-1,-1,
  36,-1,-1,-1,-1,
  36,-1,-1,-1,-1,
  36,-1,-1,-1,-1,
  36,-1,-1,-1,-1,
  36,-1,-1,-1,-1,
  36,-1,-1,-1,-1,
  36,-1,-1,-1,-1,
  36,-1,-1,-1,-1,
  36,61,-1,-1,-1,
  36,61,86,-1,-1,
  36,-1,-1,-1,-1,
  36,-1,-1,-1,-1,
  36,-1,-1,-1,-1,
  36,61,86,-1,-1,
  36,-1,-1,-1,-1,
  36,-1,-1,-1,-1,
  36,-1,-1,-1,-1,
  36,61,86,-1,-1,
  36,-1,-1,-1,-1,
  36,-1,-1,-1,-1,
  36,-1,-1,-1,-1,
  36,-1,-1,-1,-1,
  36,-1,-1,-1,-1,
  36,-1,-1,-1,-1,
  36,-1,-1,-1,-1,
  36,61,86,-1,-1,
  36,-1,-1,-1,-1,
  36,-1,-1,-1,-1,
  36,-1,-1,-1,-1,
  36,61,86,-1,-1,
  36,-1,-1,-1,-1,
  36,-1,-1,-1,-1,
  36,61,-1,-1,-1,
  36,61,86,-1,-1,
  36,-1,-1,-1,-1,
  36,61,-1,-1,-1,
  36,-1,-1,-1,-1,
  36,-1,-1,-1,-1,
  36,-1,-1,-1,-1,
  36,-1,-1,-1,-1,
  36,-1,-1,-1,-1,
  36,-1,-1,-1,-1,
  36,-1,-1,-1,-1,
  36,-1,-1,-1,-1,
  36,-1,-1,-1,-1,
  36,61,86,-1,-1,
  36,-1,-1,-1,-1,
  36,61,-1,-1,-1,
  36,-1,-1,-1,-1,
  36,61,86,-1,-1,
  36,-1,-1,-1,-1,
  36,-1,-1,-1,-1,
  36,-1,-1,-1,-1,
  36,-1,-1,-1,-1,
  36,-1,-1,-1,-1,
  36,-1,-1,-1,-1,
  36,-1,-1,-1,-1,
  36,-1,-1,-1,-1,
  36,-1,-1,-1,-1,
  36,-1,-1,-1,-1,
  36,61,-1,-1,-1,
  36,61,86,-1,-1,
  36,-1,-1,-1,-1,
  36,-1,-1,-1,-1,
  36,-1,-1,-1,-1,
  36,61,86,-1,-1,
  36,-1,-1,-1,-1,
  36,-1,-1,-1,-1,
  36,-1,-1,-1,-1,
  36,-1,-1,-1,-1,
  36,-1,-1,-1,-1,
  36,-1,-1,-1,-1,
  36,-1,-1,-1,-1,
  36,61,86,-1,-1,
  36,-1,-1,-1,-1,
  36,-1,-1,-1,-1,
  36,-1,-1,-1,-1,
  36,-1,-1,-1,-1,
  36,-1,-1,-1,-1,
  36,61,-1,-1,-1,
  36,-1,-1,-1,-1,
  36,61,86,-1,-1,
  36,-1,-1,-1,-1,
  36,-1,-1,-1,-1,
  36,-1,-1,-1,-1,
  36,-1,-1,-1,-1,
  36,-1,-1,-1,-1,
  36,-1,-1,-1,-1,
  36,-1,-1,-1,-1,
  36,61,86,-1,-1,
  36,-1,-1,-1,-1,
  36,-1,-1,-1,-1,
  36,-1,-1,-1,-1,
  36,61,86,-1,-1,
  36,-1,-1,-1,-1,
  36,-1,-1,-1,-1,
  36,-1,-1,-1,-1,
  36,61,-1,-1,-1,
  36,-1,-1,-1,-1,
  36,61,86,-1,-1,
  36,-1,-1,-1,-1,
  36,61,86,-1,-1,
  36,-1,-1,-1,-1,
  36,-1,-1,-1,-1,
  36,-1,-1,-1,-1,
  36,61,-1,-1,-1,
  36,-1,-1,-1,-1,
  36,-1,-1,-1,-1,
  36,-1,-1,-1,-1,
  36,61,86,-1,-1,
  36,-1,-1,-1,-1,
  36,61,-1,-1,-1,
  36,-1,-1,-1,-1,
  36,61,-1,-1,-1,
  36,-1,-1,-1,-1,
  36,-1,-1,-1,-1,
  36,-1,-1,-1,-1,
  36,-1,-1,-1,-1,
  36,-1,-1,-1,-1,
  36,-1,-1,-1,-1,
  36,-1,-1,-1,-1,
  36,-1,-1,-1,-1,
  36,-1,-1,-1,-1,
  36,-1,-1,-1,-1,
  36,-1,-1,-1,-1,
  36,61,86,-1,-1,
  36,-1,-1,-1,-1,
  36,61,-1,-1,-1,
  36,61,-1,-1,-1,
  36,-1,-1,-1,-1,
  36,-1,-1,-1,-1,
  36,-1,-1,-1,-1,
  36,-1,-1,-1,-1,
  36,61,86,-1,-1,
  36,-1,-1,-1,-1,
  36,-1,-1,-1,-1,
  36,-1,-1,-1,-1,
  36,-1,-1,-1,-1,
  36,-1,-1,-1,-1,
  36,-1,-1,-1,-1,
  36,-1,-1,-1,-1,
  36,61,-1,-1,-1,
  36,-1,-1,-1,-1,
  36,-1,-1,-1,-1,
  36,-1,-1,-1,-1,
  36,-1,-1,-1,-1,
  36,-1,-1,-1,-1,
  36,-1,-1,-1,-1,
  36,-1,-1,-1,-1,
  36,-1,-1,-1,-1,
  36,-1,-1,-1,-1,
  36,-1,-1,-1,-1,
  36,-1,-1,-1,-1,
  36,-1,-1,-1,-1,
  36,-1,-1,-1,-1,
  36,-1,-1,-1,-1,
  36,-1,-1,-1,-1,
  36,61,86,-1,-1,
  36,-1,-1,-1,-1,
  36,-1,-1,-1,-1,
  36,-1,-1,-1,-1,
  36,61,86,-1,-1,
  36,-1,-1,-1,-1,
  36,-1,-1,-1,-1,
  36,-1,-1,-1,-1,
  36,-1,-1,-1,-1,
  36,-1,-1,-1,-1,
  36,61,-1,-1,-1,
  36,-1,-1,-1,-1,
  36,61,86,-1,-1,
  36,-1,-1,-1,-1,
  36,-1,-1,-1,-1,
  36,61,86,-1,-1,
  36,61,86,-1,-1,
  36,-1,-1,-1,-1,
  36,-1,-1,-1,-1,
  36,-1,-1,-1,-1,
  36,-1,-1,-1,-1,
  36,-1,-1,-1,-1,
  36,61,-1,-1,-1,
  36,-1,-1,-1,-1,
  36,61,86,-1,-1,
  36,-1,-1,-1,-1,
  36,-1,-1,-1,-1,
  36,61,86,-1,-1,
  36,61,86,111,-1,
  36,-1,-1,-1,-1,
  36,-1,-1,-1,-1,
  36,-1,-1,-1,-1,
  36,-1,-1,-1,-1,
  36,-1,-1,-1,-1,
  36,-1,-1,-1,-1,
  36,-1,-1,-1,-1,
  36,-1,-1,-1,-1,
  36,-1,-1,-1,-1,
  36,-1,-1,-1,-1,
  36,-1,-1,-1,-1,
  36,-1,-1,-1,-1,
  36,-1,-1,-1,-1,
  36,-1,-1,-1,-1,
  36,61,86,111,-1,
  36,61,86,-1,-1,
  36,-1,-1,-1,-1,
  36,-1,-1,-1,-1,
  36,61,-1,-1,-1,
  36,-1,-1,-1,-1,
  36,-1,-1,-1,-1,
  36,-1,-1,-1,-1,
  36,61,86,111,-1,
  36,61,86,-1,-1,
  36,-1,-1,-1,-1,
  36,-1,-1,-1,-1,
  36,61,86,-1,-1,
  36,61,86,-1,-1,
  36,-1,-1,-1,-1,
  36,-1,-1,-1,-1,
  36,61,86,111,136,
  36,61,86,-1,-1,
  36,-1,-1,-1,-1,
  36,-1,-1,-1,-1,
  36,-1,-1,-1,-1,
  36,-1,-1,-1,-1,
  36,-1,-1,-1,-1,
  36,-1,-1,-1,-1,
  36,-1,-1,-1,-1,
  36,-1,-1,-1,-1,
  36,-1,-1,-1,-1,
  36,-1,-1,-1,-1,
  36,61,86,-1,-1,
  36,61,86,-1,-1,
  36,-1,-1,-1,-1,
  36,-1,-1,-1,-1,
  36,-1,-1,-1,-1,
  36,-1,-1,-1,-1,
  36,-1,-1,-1,-1,
  36,-1,-1,-1,-1,
  36,-1,-1,-1,-1,
  36,61,86,-1,-1,
  36,-1,-1,-1,-1,
  36,-1,-1,-1,-1,
  36,-1,-1,-1,-1,
  36,61,86,-1,-1,
  36,-1,-1,-1,-1,
  36,-1,-1,-1,-1,
  36,61,-1,-1,-1,
  36,-1,-1,-1,-1,
  36,-1,-1,-1,-1,
  36,-1,-1,-1,-1,
  36,61,-1,-1,-1,
  36,61,86,-1,-1,
  36,-1,-1,-1,-1,
  36,-1,-1,-1,-1,
  36,-1,-1,-1,-1,
  36,61,-1,-1,-1,
  36,-1,-1,-1,-1,
  36,61,-1,-1,-1,
  36,-1,-1,-1,-1,
  36,61,-1,-1,-1,
  36,-1,-1,-1,-1,
  36,-1,-1,-1,-1,
  36,-1,-1,-1,-1,
  36,-1,-1,-1,-1,
  36,-1,-1,-1,-1,
  36,-1,-1,-1,-1,
  36,61,-1,-1,-1,
  36,-1,-1,-1,-1,
  36,-1,-1,-1,-1,
  36,-1,-1,-1,-1,
  36,-1,-1,-1,-1,
  36,-1,-1,-1,-1,
  36,-1,-1,-1,-1,
  36,61,-1,-1,-1,
  36,-1,-1,-1,-1,
  36,61,86,-1,-1,
  36,-1,-1,-1,-1,
  36,-1,-1,-1,-1,
  36,-1,-1,-1,-1,
  36,-1,-1,-1,-1,
  36,-1,-1,-1,-1,
  36,-1,-1,-1,-1,
  36,-1,-1,-1,-1,
  36,61,86,-1,-1,
  36,-1,-1,-1,-1,
  36,-1,-1,-1,-1,
  36,-1,-1,-1,-1,
  36,-1,-1,-1,-1,
  36,-1,-1,-1,-1,
  36,-1,-1,-1,-1,
  36,61,-1,-1,-1,
  36,61,-1,-1,-1,
  36,-1,-1,-1,-1,
  36,-1,-1,-1,-1,
  36,61,-1,-1,-1,
  36,61,86,-1,-1,
  36,-1,-1,-1,-1,
  36,-1,-1,-1,-1,
  36,-1,-1,-1,-1,
  36,61,86,-1,-1,
  36,-1,-1,-1,-1,
  36,-1,-1,-1,-1,
  36,61,-1,-1,-1,
  36,61,86,-1,-1,
  36,-1,-1,-1,-1,
  36,61,-1,-1,-1,
  36,-1,-1,-1,-1,
  36,61,86,-1,-1,
  36,-1,-1,-1,-1,
  36,-1,-1,-1,-1,
  36,-1,-1,-1,-1,
  36,61,86,-1,-1,
  36,-1,-1,-1,-1,
  36,-1,-1,-1,-1,
  36,61,-1,-1,-1,
  36,61,86,-1,-1,
  36,-1,-1,-1,-1,
  36,-1,-1,-1,-1,
  36,-1,-1,-1,-1,
  36,-1,-1,-1,-1,
  36,-1,-1,-1,-1,
  36,-1,-1,-1,-1,
  36,-1,-1,-1,-1,
  36,-1,-1,-1,-1,
  36,-1,-1,-1,-1,
  36,-1,-1,-1,-1,
  36,-1,-1,-1,-1,
  36,61,86,-1,-1,
  36,-1,-1,-1,-1,
  36,-1,-1,-1,-1,
  36,-1,-1,-1,-1,
  36,61,86,-1,-1,
  36,-1,-1,-1,-1,
  36,-1,-1,-1,-1,
  36,-1,-1,-1,-1,
  36,61,-1,-1,-1,
  36,-1,-1,-1,-1,
  36,-1,-1,-1,-1,
  36,61,-1,-1,-1,
  36,61,-1,-1,-1,
  36,-1,-1,-1,-1,
  36,-1,-1,-1,-1,
  36,-1,-1,-1,-1,
  36,-1,-1,-1,-1,
  36,-1,-1,-1,-1,
  36,-1,-1,-1,-1,
  36,-1,-1,-1,-1,
  36,61,86,-1,-1,
  36,-1,-1,-1,-1,
  36,-1,-1,-1,-1,
  36,-1,-1,-1,-1,
  36,61,86,-1,-1,
  36,-1,-1,-1,-1,
  36,-1,-1,-1,-1,
  36,61,-1,-1,-1,
  36,61,86,-1,-1,
  36,-1,-1,-1,-1,
  36,-1,-1,-1,-1,
  36,-1,-1,-1,-1,
  36,61,86,-1,-1,
  36,-1,-1,-1,-1,
  36,-1,-1,-1,-1,
  36,-1,-1,-1,-1,
  36,61,86,-1,-1,
  36,-1,-1,-1,-1,
  36,-1,-1,-1,-1,
  36,61,-1,-1,-1,
  36,61,86,-1,-1,
  36,-1,-1,-1,-1,
  36,-1,-1,-1,-1,
  36,-1,-1,-1,-1,
  36,-1,-1,-1,-1,
  36,-1,-1,-1,-1,
  36,-1,-1,-1,-1,
  36,61,86,-1,-1,
  36,61,-1,-1,-1,
  36,-1,-1,-1,-1,
  36,61,86,-1,-1,
  36,61,-1,-1,-1,
  36,-1,-1,-1,-1,
  36,-1,-1,-1,-1,
  36,-1,-1,-1,-1,
  36,-1,-1,-1,-1,
  36,61,86,-1,-1,
  36,-1,-1,-1,-1,
  36,-1,-1,-1,-1,
  36,-1,-1,-1,-1,
  36,-1,-1,-1,-1,
  36,-1,-1,-1,-1,
  36,-1,-1,-1,-1,
  36,-1,-1,-1,-1,
  36,61,86,-1,-1,
  36,-1,-1,-1,-1,
  36,61,86,-1,-1,
  36,-1,-1,-1,-1,
  36,-1,-1,-1,-1,
  36,-1,-1,-1,-1,
  36,61,86,-1,-1,
  36,-1,-1,-1,-1,
  36,-1,-1,-1,-1 ]);
